GLPSOL--GLPK LP/MIP Solver 5.0
Parameter(s) specified in the command line:
 --lp ../modeles/5_419.lp --log 5_419.log
Reading problem data from '../modeles/5_419.lp'...
2116 rows, 4200 columns, 14690 non-zeros
2095 integer variables, all of which are binary
6327 lines were read
GLPK Integer Optimizer 5.0
2116 rows, 4200 columns, 14690 non-zeros
2095 integer variables, all of which are binary
Preprocessing...
2070 constraint coefficient(s) were reduced
2116 rows, 4195 columns, 14685 non-zeros
2095 integer variables, all of which are binary
Scaling...
 A: min|aij| =  2.278e-05  max|aij| =  4.000e+00  ratio =  1.756e+05
GM: min|aij| =  4.885e-02  max|aij| =  2.047e+01  ratio =  4.190e+02
EQ: min|aij| =  2.387e-03  max|aij| =  1.000e+00  ratio =  4.190e+02
2N: min|aij| =  1.953e-03  max|aij| =  1.769e+00  ratio =  9.059e+02
Constructing initial basis...
Size of triangular part is 2116
Solving LP relaxation...
GLPK Simplex Optimizer 5.0
2116 rows, 4195 columns, 14685 non-zeros
      0: obj =   1.000000000e+01 inf =   2.450e+01 (11)
    114: obj =   4.999458874e-01 inf =   0.000e+00 (0)
*   382: obj =  -2.235953131e+00 inf =   4.303e-16 (0)
OPTIMAL LP SOLUTION FOUND
Integer optimization begins...
Long-step dual simplex will be used
+   382: mip =     not found yet >=              -inf        (1; 0)
+   864: >>>>>  -2.235953131e+00 >=  -2.235953131e+00 < 0.1% (481; 0)
+   864: mip =  -2.235953131e+00 >=     tree is empty   0.0% (0; 961)
INTEGER OPTIMAL SOLUTION FOUND
Time used:   1.5 secs
Memory used: 6.2 Mb (6474309 bytes)
